NAME : XML100_2331_14
DIMENSION : 101
NB_CLUSTERS : 6
CLUSTERING_ALG : DBSCAN
CLUSTERING_PARAMS : eps(123), minSamples(3)
CLUSTERS
1 0
2 1 2 4 6 9 11 12 13 14 15 19 20 24 26 27 28 38 39 40 43 46 47 48 50 53 54 56 63 64 65 79 80 81 82 85 88 89 91 92 93 95 100
3 3 10 32 98
4 5 7 8 16 18 21 23 29 30 33 35 36 41 44 51 55 57 60 71 72 74 76 77 78 83 84 86 87 90 94
5 17 22 34 45 49 58 61 62 66 67 68 69 70 75 97 99
6 25 31 37 42 52 59 73 96
EOF